
  32    4
  10   10   10   10

   0   0   0   0   0  12 2 3 4 5 6 8 13 14 15 16 30 31 
   8   1   0   1   2   7 27 26 25 24 21 20 7 
   5   4   1   7   0   7 23 22 21 17 11 10 9 
   9   2   5   0   3   8 27 26 25 24 23 21 17 9 
   8   2   4   3   0   8 29 28 26 25 24 22 19 9 
   7   4   7   0   6   4 21 19 18 12 
   9   4   5   1   0   4 23 22 19 17 
   4   4   3   0   2   4 23 22 21 18 
   9   0   5   8   5   1 20 
   8   7   0   2   2   1 19 
   4   6   1   7   0   1 18 
   7   3   2   0   4   1 17 
   8   2   0   8   5   1 20 
   5   4   4   4   0   1 18 
   2   2   5   6   0   1 18 
  10   8   3   8   0   1 17 
   5   6   0   3   6   1 32
   5   8   0   3   3   1 32
   1   6   0   4   4   1 32
   7   3   3   4   0   1 32
   8   1   4   0   6   1 32
   7   4   1   0   3   1 32
   9   3   0   2  10   1 32
   4   0   8   2   3   1 32
  10   0   5   4   3   1 32
   3   0   7   3   3   1 32
   6   0   3   2   3   1 32
  10   0   4   4   6   1 32
   8   3   0   3   2   1 32
   9   6   0   4   3   1 32
   8   3   0   3   4   1 32
   0   0   0   0   0   0 
